CUST NO.,SPOT ID,PARKING TIME_ARRIVE,PARKING TIME_OPEN
0,0,0,0
1,1,0,0
2,2,0,0
e0,e0,0,0
e1,e1,0,0
e2,e2,0,0
e3,e3,0,0
e4,e4,0,0
e5,e5,0,0
e6,e6,0,0
1000000,0,0,0
1000001,0,0,0
1000002,0,0,0